100
1000
200
199
199
197
197
196
196
193
193
193
192
192
191
191
190
190
189
189
189
188
187
185
185
185
183
183
182
181
181
181
180
180
180
179
179
179
178
177
177
177
177
177
176
176
175
175
175
175
175
174
174
174
174
173
171
171
171
170
169
169
168
168
168
168
168
167
166
166
166
166
165
165
163
162
162
161
161
160
160
160
159
159
158
158
157
156
156
156
155
155
155
154
153
153
152
152
152
151
151
150
